
n_res = 4;
rcap = [38, 44, 462, 428];
rtype = [1, 1, 2, 2];
n_tasks = 50;
modes =  [{1, 2, 3, 4, 5, 6}, {7, 8, 9, 10, 11, 12}, {13, 14, 15, 16, 17, 18}, {19, 20, 21, 22, 23, 24}, {25, 26, 27, 28, 29, 30}, {31, 32, 33, 34, 35, 36}, {37, 38, 39, 40, 41, 42}, {43, 44, 45, 46, 47, 48}, {49, 50, 51, 52, 53, 54}, {55, 56, 57, 58, 59, 60}, {61, 62, 63, 64, 65, 66}, {67, 68, 69, 70, 71, 72}, {73, 74, 75, 76, 77, 78}, {79, 80, 81, 82, 83, 84}, {85, 86, 87, 88, 89, 90}, {91, 92, 93, 94, 95, 96}, {97, 98, 99, 100, 101, 102}, {103, 104, 105, 106, 107, 108}, {109, 110, 111, 112, 113, 114}, {115, 116, 117, 118, 119, 120}, {121, 122, 123, 124, 125, 126}, {127, 128, 129, 130, 131, 132}, {133, 134, 135, 136, 137, 138}, {139, 140, 141, 142, 143, 144}, {145, 146, 147, 148, 149, 150}, {151, 152, 153, 154, 155, 156}, {157, 158, 159, 160, 161, 162}, {163, 164, 165, 166, 167, 168}, {169, 170, 171, 172, 173, 174}, {175, 176, 177, 178, 179, 180}, {181, 182, 183, 184, 185, 186}, {187, 188, 189, 190, 191, 192}, {193, 194, 195, 196, 197, 198}, {199, 200, 201, 202, 203, 204}, {205, 206, 207, 208, 209, 210}, {211, 212, 213, 214, 215, 216}, {217, 218, 219, 220, 221, 222}, {223, 224, 225, 226, 227, 228}, {229, 230, 231, 232, 233, 234}, {235, 236, 237, 238, 239, 240}, {241, 242, 243, 244, 245, 246}, {247, 248, 249, 250, 251, 252}, {253, 254, 255, 256, 257, 258}, {259, 260, 261, 262, 263, 264}, {265, 266, 267, 268, 269, 270}, {271, 272, 273, 274, 275, 276}, {277, 278, 279, 280, 281, 282}, {283, 284, 285, 286, 287, 288}, {289, 290, 291, 292, 293, 294}, {295, 296, 297, 298, 299, 300}];
succ =  [{37, 29, 22, 20, 19, 9}, {37, 31, 29, 28, 27, 26, 24, 23, 15}, {29, 28, 27, 25, 22, 21, 20, 19}, {32, 31, 29, 28, 27, 26, 25, 24, 23, 21}, {37, 29, 28, 26, 22, 18, 15}, {37, 32, 31, 29, 27, 25, 24, 23, 22}, {31, 30, 29, 28, 27, 23, 21, 15}, {36, 32, 31, 29, 28, 27, 24, 18}, {31, 28, 27, 18, 15}, {37, 34, 30, 28, 27, 19}, {37, 31, 25, 24, 23, 22}, {38, 36, 32, 30, 29, 28, 27, 23}, {50, 36, 34, 33, 32, 31, 24}, {38, 37, 32, 31, 25, 23}, {50, 38, 36, 34, 32, 25}, {50, 48, 46, 38, 36, 35, 34, 33, 30}, {38, 34, 32, 29, 27}, {48, 38, 30, 23}, {49, 38, 36, 33, 32, 31}, {35, 34, 24}, {50, 49, 48, 47, 46, 43, 38, 36, 34}, {50, 46, 43, 38, 36, 35, 34, 33}, {50, 46, 45, 44, 43, 35, 34, 33}, {48, 47, 46, 41, 38, 30}, {49, 48, 46, 44, 43, 35, 33}, {50, 48, 47, 46, 43, 38, 34}, {50, 49, 46, 45, 44, 42, 41, 35}, {47, 46, 45, 44, 43, 42, 41, 40, 39}, {49, 47, 44, 42, 35}, {49, 44, 43, 42, 40, 39}, {48, 46, 43, 41, 40, 39}, {48, 43, 41, 35}, {47, 42, 41, 40, 39}, {42, 41, 40, 39}, {40, 39}, {45, 44}, {45, 41}, {45}, {}, {}, {}, {}, {}, {}, {}, {}, {}, {}, {}, {}];
n_opt = 300;
dur = [4, 5, 6, 8, 13, 14, 1, 2, 4, 5, 13, 19, 2, 6, 7, 8, 9, 14, 1, 2, 4, 6, 10, 19, 1, 6, 10, 11, 12, 18, 6, 10, 11, 13, 19, 20, 2, 7, 9, 11, 14, 17, 1, 2, 10, 13, 16, 17, 7, 8, 9, 12, 16, 17, 1, 11, 12, 15, 16, 20, 1, 2, 6, 12, 16, 19, 2, 3, 5, 8, 11, 12, 2, 3, 9, 11, 13, 15, 1, 3, 6, 8, 11, 18, 1, 5, 6, 11, 14, 17, 3, 5, 11, 12, 13, 18, 2, 3, 6, 11, 19, 20, 2, 5, 8, 10, 13, 17, 3, 5, 6, 13, 14, 20, 2, 4, 5, 6, 7, 8, 3, 5, 6, 10, 12, 15, 6, 8, 10, 12, 17, 18, 2, 6, 10, 11, 12, 15, 1, 6, 7, 8, 9, 20, 2, 3, 4, 8, 18, 19, 1, 7, 8, 13, 19, 20, 2, 5, 14, 17, 18, 20, 3, 10, 12, 14, 15, 20, 1, 2, 4, 7, 13, 18, 4, 5, 6, 7, 11, 19, 4, 7, 9, 16, 17, 20, 4, 6, 8, 10, 15, 20, 10, 11, 14, 17, 19, 20, 3, 6, 12, 17, 18, 19, 6, 10, 11, 14, 16, 18, 5, 6, 7, 8, 12, 19, 2, 3, 4, 5, 6, 10, 4, 7, 12, 15, 16, 19, 3, 4, 5, 8, 17, 18, 3, 5, 6, 10, 19, 20, 5, 6, 9, 11, 12, 18, 9, 10, 11, 13, 19, 20, 2, 4, 9, 14, 15, 16, 8, 9, 10, 13, 14, 16, 3, 5, 6, 18, 19, 20, 3, 9, 10, 11, 12, 20, 6, 9, 11, 15, 17, 20, 2, 3, 10, 11, 16, 18, 1, 2, 4, 11, 15, 17, 1, 5, 7, 8, 9, 15];
rreq = [|2, 2, 2, 2, 2, 2, 3, 3, 3, 3, 3, 3, 4, 4, 3, 3, 2, 1, 1, 1, 1, 1, 1, 1, 3, 2, 2, 2, 2, 2, 3, 3, 2, 2, 2, 1, 4, 3, 3, 3, 3, 3, 5, 4, 4, 4, 4, 4, 2, 1, 1, 1, 1, 1, 5, 3, 3, 3, 2, 1, 3, 3, 3, 3, 3, 3, 3, 2, 2, 2, 2, 2, 5, 4, 4, 3, 2, 2, 1, 1, 1, 1, 1, 1, 2, 2, 2, 2, 2, 2, 4, 3, 3, 3, 2, 2, 3, 3, 3, 2, 2, 2, 4, 3, 3, 2, 1, 1, 5, 4, 3, 3, 2, 2, 3, 3, 2, 2, 2, 1, 1, 1, 1, 1, 1, 1, 4, 3, 3, 3, 3, 3, 5, 4, 3, 3, 2, 2, 2, 1, 1, 1, 1, 1, 2, 1, 1, 1, 1, 1, 2, 2, 2, 1, 1, 1, 4, 4, 3, 3, 2, 1, 3, 3, 3, 3, 3, 3, 4, 4, 3, 2, 2, 1, 2, 2, 2, 2, 2, 2, 2, 1, 1, 1, 1, 1, 5, 4, 4, 3, 2, 2, 4, 3, 3, 3, 2, 2, 1, 1, 1, 1, 1, 1, 5, 3, 3, 2, 2, 1, 5, 5, 5, 5, 5, 5, 4, 4, 4, 4, 4, 4, 5, 4, 3, 2, 2, 1, 2, 1, 1, 1, 1, 1, 4, 4, 4, 4, 4, 4, 3, 2, 2, 2, 2, 2, 3, 3, 3, 3, 3, 3, 4, 3, 2, 2, 2, 1, 5, 4, 4, 3, 3, 3, 4, 4, 4, 3, 2, 2, 3, 3, 3, 2, 2, 1, 4, 4, 4, 4, 4, 4, 5, 4, 3, 3, 2, 2, 5, 4, 4, 3, 3, 2, 5, 4, 4, 3, 3, 2
 |4, 4, 4, 3, 3, 3, 4, 4, 4, 4, 4, 4, 5, 4, 3, 2, 2, 1, 5, 4, 4, 4, 4, 4, 2, 2, 2, 2, 1, 1, 1, 1, 1, 1, 1, 1, 4, 3, 3, 3, 3, 3, 3, 2, 2, 2, 2, 2, 4, 4, 3, 3, 2, 1, 4, 3, 3, 2, 2, 2, 5, 3, 3, 3, 1, 1, 4, 4, 4, 4, 4, 4, 5, 4, 3, 2, 2, 1, 5, 4, 4, 3, 3, 2, 3, 3, 3, 3, 2, 2, 2, 2, 2, 2, 2, 2, 4, 4, 4, 4, 4, 4, 4, 3, 3, 2, 1, 1, 5, 5, 5, 5, 5, 5, 4, 3, 3, 3, 3, 3, 4, 3, 3, 3, 3, 3, 3, 2, 2, 2, 1, 1, 4, 4, 4, 4, 4, 4, 2, 1, 1, 1, 1, 1, 5, 5, 5, 5, 5, 5, 4, 4, 3, 3, 3, 2, 4, 4, 4, 4, 4, 4, 4, 3, 3, 3, 3, 3, 3, 3, 2, 2, 2, 1, 3, 2, 2, 2, 1, 1, 2, 2, 2, 1, 1, 1, 5, 3, 3, 3, 1, 1, 3, 2, 2, 2, 2, 2, 4, 3, 3, 2, 1, 1, 5, 4, 4, 3, 3, 2, 3, 3, 3, 3, 2, 2, 3, 3, 3, 2, 1, 1, 4, 4, 4, 4, 4, 4, 2, 2, 2, 2, 2, 2, 4, 4, 4, 4, 4, 4, 4, 4, 4, 4, 3, 3, 4, 3, 3, 3, 1, 1, 4, 3, 3, 3, 3, 3, 4, 3, 3, 2, 2, 2, 4, 4, 3, 3, 2, 1, 5, 4, 4, 3, 2, 2, 3, 2, 2, 1, 1, 1, 4, 4, 3, 3, 2, 2, 3, 3, 3, 3, 3, 3, 2, 2, 2, 2, 1, 1
 |15, 15, 15, 14, 14, 13, 19, 16, 13, 10, 10, 6, 14, 13, 11, 11, 8, 8, 10, 10, 9, 8, 7, 5, 17, 16, 16, 16, 16, 16, 4, 4, 4, 4, 3, 3, 18, 17, 17, 14, 13, 13, 18, 15, 12, 10, 8, 6, 13, 12, 12, 11, 11, 11, 4, 4, 4, 4, 3, 3, 17, 17, 17, 17, 17, 17, 15, 14, 12, 10, 9, 9, 13, 12, 11, 11, 10, 8, 9, 9, 7, 6, 6, 4, 16, 13, 9, 8, 4, 2, 16, 16, 15, 14, 12, 11, 6, 6, 6, 6, 6, 6, 16, 14, 14, 14, 13, 12, 15, 12, 12, 10, 7, 7, 16, 13, 11, 9, 8, 5, 20, 19, 19, 19, 19, 19, 20, 18, 15, 13, 10, 9, 17, 16, 16, 16, 15, 15, 12, 9, 9, 6, 4, 4, 18, 17, 15, 14, 14, 13, 17, 15, 12, 9, 8, 4, 11, 11, 11, 10, 9, 9, 19, 17, 14, 13, 13, 10, 12, 10, 10, 10, 9, 8, 13, 12, 10, 10, 9, 8, 5, 3, 3, 2, 1, 1, 12, 11, 7, 6, 5, 2, 12, 11, 10, 9, 6, 5, 9, 9, 8, 5, 4, 3, 10, 9, 8, 7, 5, 4, 11, 10, 8, 4, 4, 2, 9, 9, 8, 7, 5, 5, 15, 12, 11, 8, 7, 4, 3, 3, 3, 3, 3, 3, 17, 16, 16, 15, 13, 12, 16, 14, 11, 8, 3, 3, 8, 7, 7, 6, 6, 6, 17, 16, 12, 9, 8, 6, 15, 14, 12, 9, 7, 7, 16, 15, 15, 14, 14, 14, 15, 14, 14, 13, 13, 12, 15, 14, 13, 12, 11, 10, 16, 15, 15, 15, 15, 15, 15, 13, 12, 11, 11, 10, 9, 8, 6, 6, 4, 3
 |6, 5, 4, 2, 1, 1, 13, 12, 11, 11, 10, 10, 17, 17, 17, 17, 17, 17, 7, 6, 6, 5, 5, 5, 14, 13, 12, 11, 12, 11, 15, 14, 13, 12, 11, 9, 7, 7, 6, 7, 7, 6, 18, 15, 13, 12, 10, 8, 19, 18, 14, 14, 10, 10, 11, 10, 9, 9, 9, 9, 15, 14, 13, 12, 10, 9, 19, 17, 16, 15, 14, 13, 14, 13, 13, 13, 12, 11, 14, 11, 8, 8, 5, 1, 8, 7, 6, 6, 4, 4, 18, 13, 11, 9, 8, 4, 8, 7, 6, 8, 7, 6, 9, 8, 6, 5, 3, 2, 10, 8, 8, 7, 5, 4, 15, 15, 11, 10, 6, 4, 10, 9, 8, 7, 6, 5, 9, 6, 5, 5, 2, 2, 16, 15, 15, 13, 10, 9, 17, 15, 14, 12, 9, 8, 4, 4, 4, 3, 2, 3, 18, 18, 18, 17, 17, 17, 20, 15, 13, 10, 9, 6, 18, 15, 10, 8, 7, 2, 12, 11, 11, 8, 7, 6, 18, 15, 14, 13, 12, 12, 10, 9, 8, 9, 9, 8, 18, 17, 16, 16, 14, 13, 19, 15, 12, 11, 7, 4, 9, 8, 8, 8, 8, 8, 5, 4, 4, 3, 3, 2, 13, 9, 9, 7, 4, 3, 10, 8, 7, 5, 3, 2, 6, 6, 6, 6, 6, 6, 11, 9, 6, 5, 3, 2, 17, 15, 13, 9, 8, 7, 8, 7, 7, 7, 7, 6, 16, 16, 14, 13, 12, 11, 7, 6, 4, 4, 3, 1, 14, 11, 10, 7, 6, 4, 12, 10, 10, 8, 6, 5, 18, 19, 18, 17, 17, 17, 18, 16, 14, 11, 8, 8, 16, 14, 13, 9, 7, 5, 6, 6, 6, 6, 5, 5, 17, 17, 16, 16, 15, 14|];